data/benchmarks/bayes/90-16-1-q.cnf
p cnf 1216 1073
c weights 0.368457 0.631543 1 1 1 1 1 1 1 1 1 1 1 1 1 1 1 1 1 1 1 1 1 1 1 1 1 1 1 1 1 1 1 1 1 1 1 1 1 1 1 1 1 1 1 1 1 1 1 1 1 1 1 1 1 1 1 1 1 1 1 1 1 1 1 1 1 1 1 1 1 1 1 1 1 1 1 1 1 1 1 1 1 1 1 1 1 1 1 1 1 1 1 1 1 1 1 1 1 1 1 1 1 1 1 1 1 1 1 1 1 1 1 1 1 1 1 1 1 1 1 1 1 1 1 1 1 1 1 1 1 1 1 1 1 1 1 1 1 1 1 1 1 1 1 1 1 1 1 1 1 1 1 1 1 1 1 1 1 1 1 1 1 1 1 1 1 1 1 1 1 1 1 1 1 1 1 1 1 1 1 1 1 1 1 1 1 1 1 1 1 1 1 1 1 1 1 1 1 1 1 1 1 1 1 1 1 1 1 1 1 1 1 1 1 1 1 1 1 1 1 1 1 1 1 1 1 1 1 1 1 1 1 1 1 1 1 1 1 1 1 1 1 1 1 1 1 1 1 1 1 1 1 1 1 1 1 1 1 1 1 1 1 1 1 1 1 1 1 1 1 1 1 1 1 1 1 1 1 1 1 1 1 1 1 1 1 1 1 1 1 1 1 1 1 1 1 1 1 1 1 1 1 1 1 1 1 1 1 1 1 1 1 1 1 1 1 1 1 1 1 1 1 1 1 1 1 1 1 1 1 1 1 1 1 1 1 1 1 1 1 1 1 1 1 1 1 1 1 1 1 1 1 1 1 1 1 1 1 1 1 1 1 1 1 1 1 1 1 1 1 1 1 1 1 1 1 1 1 1 1 1 1 1 1 1 1 1 1 1 1 1 1 1 1 1 1 1 1 1 1 1 1 1 1 1 1 1 1 1 1 1 1 1 1 1 1 1 1 1 1 1 1 1 1 1 1 1 1 1 1 1 1 1 1 1 1 1 1 1 1 1 1 1 1 1 1 1 1 1 1 1 1 1 1 1 1 1 1 1 1 1 1 1 1 1 1 1 1 1 1 1 1 1 1 1 1 1 1 1 1 1 1 1 1 1 1 1 1 1 1 1 1 1 1 1 1 1 1 1 1 1 1 1 1 1 1 1 1 1 1 1 0.5 0.5 0.5 0.5 0.5 0.5 0.5 0.5 0.331075 0.668925 0.256758 0.743242 0.5 0.5 0.5 0.5 0.5 0.5 0.5 0.5 0.5 0.5 0.5 0.5 0.5 0.5 0.5 0.5 0.5 0.5 0.5 0.5 0.5 0.5 0.5 0.5 0.5 0.5 0.5 0.5 0.5 0.5 0.5 0.5 0.5 0.5 0.5 0.5 0.5 0.5 0.5 0.5 0.5 0.5 0.5 0.5 0.5 0.5 0.5 0.5 0.5 0.5 0.5 0.5 0.5 0.5 0.5 0.5 0.5 0.5 0.5 0.5 0.5 0.5 0.5 0.5 0.5 0.5 0.5 0.5 0.5 0.5 0.5 0.5 0.5 0.5 0.5 0.5 0.5 0.5 0.5 0.5 0.5 0.5 0.5 0.5 0.5 0.5 0.5 0.5 0.5 0.5 0.5 0.5 0.5 0.5 0.5 0.5 0.5 0.5 0.5 0.5 0.5 0.5 0.5 0.5 0.5 0.5 0.5 0.5 0.5 0.5 0.5 0.5 0.5 0.5 0.5 0.5 0.362149 0.637851 0.0146437 0.9853563 0.0712953 0.9287046999999999 0.943073 0.05692699999999995 0.5 0.5 0.5 0.5 0.5 0.5 0.5 0.5 0.5 0.5 0.5 0.5 0.5 0.5 0.5 0.5 0.5 0.5 0.5 0.5 0.5 0.5 0.5 0.5 0.707654 0.292346 0.174577 0.825423 0.0789004 0.9210996 0.891374 0.108626 0.5 0.5 0.5 0.5 0.5 0.5 0.5 0.5 0.5 0.5 0.5 0.5 0.5 0.5 0.5 0.5 0.5 0.5 0.5 0.5 0.294289 0.705711 0.211962 0.788038 0.129592 0.870408 0.553171 0.44682900000000003 0.5 0.5 0.5 0.5 0.5 0.5 0.5 0.5 0.5 0.5 0.5 0.5 0.5 0.5 0.5 0.5 0.5 0.5 0.5 0.5 0.5 0.5 0.5 0.5 0.5 0.5 0.5 0.5 0.5 0.5 0.5 0.5 0.5 0.5 0.5 0.5 0.5 0.5 0.5 0.5 0.5 0.5 0.5 0.5 0.5 0.5 0.5 0.5 0.5 0.5 0.5 0.5 0.5 0.5 0.5 0.5 0.5 0.5 0.5 0.5 0.5 0.5 0.5 0.5 0.5 0.5 0.5 0.5 0.5 0.5 0.5 0.5 0.5 0.5 0.5 0.5 0.5 0.5 0.5 0.5 0.5 0.5 0.5 0.5 0.5 0.5 0.5 0.5 0.5 0.5 0.5 0.5 0.5 0.5 0.5 0.5 0.5 0.5 0.5 0.5 0.5 0.5 0.5 0.5 0.5 0.5 0.5 0.5 0.5 0.5 0.5 0.5 0.5 0.5 0.5 0.5 0.5 0.5 0.5 0.5 0.5 0.5 0.5 0.5 0.5 0.5 0.5 0.5 0.5 0.5 0.5 0.5 0.5 0.5 0.5 0.5 0.5 0.5 0.5 0.5 0.5 0.5 0.5 0.5 0.5 0.5 0.5 0.5 0.5 0.5 0.5 0.5 0.5 0.5 0.5 0.5 0.5 0.5 0.5 0.5 0.5 0.5 0.5 0.5 0.5 0.5 0.5 0.5 0.5 0.5 0.5 0.5 0.5 0.5 0.5 0.5 0.5 0.5 0.5 0.5 0.5 0.5 0.5 0.5 0.5 0.5 0.5 0.5 0.5 0.5 0.5 0.5 0.5 0.5 0.5 0.5 0.854166 0.14583400000000002 0.41436 0.5856399999999999 0.793655 0.206345 0.312403 0.687597 0.5 0.5 0.5 0.5 0.5 0.5 0.5 0.5 0.590506 0.409494 0.436593 0.563407 0.920936 0.07906400000000002 0.990474 0.009526000000000034 0.5 0.5 0.5 0.5 0.5 0.5 0.5 0.5 0.5 0.5 0.5 0.5 0.5 0.5 0.5 0.5 0.5 0.5 0.5 0.5 0.5 0.5 0.5 0.5 0.5 0.5 0.5 0.5 0.5 0.5 0.5 0.5 0.5 0.5 0.5 0.5 0.5 0.5 0.5 0.5 0.5 0.5 0.5 0.5 0.444608 0.555392 0.100107 0.899893 0.96714 0.03286 0.993982 0.006017999999999968 0.5 0.5 0.5 0.5 0.5 0.5 0.5 0.5 0.5 0.5 0.5 0.5 0.5 0.5 0.5 0.5 0.5 0.5 0.5 0.5 0.5 0.5 0.5 0.5 0.5 0.5 0.5 0.5 0.5 0.5 0.5 0.5 0.5 0.5 0.5 0.5 0.5 0.5 0.5 0.5 0.5 0.5 0.5 0.5 0.5 0.5 0.5 0.5 0.5 0.5 0.5 0.5 0.5 0.5 0.5 0.5 0.5 0.5 0.5 0.5 0.5 0.5 0.5 0.5 0.5 0.5 0.5 0.5 0.5 0.5 0.5 0.5 0.28711 0.71289 0.846772 0.15322800000000003 0.658301 0.341699 0.233808 0.766192 0.5 0.5 0.5 0.5 0.5 0.5 0.5 0.5 0.5 0.5 0.5 0.5 0.5 0.5 0.5 0.5 0.5 0.5 0.5 0.5 0.5 0.5 0.5 0.5 0.5 0.5 0.5 0.5 0.5 0.5 0.5 0.5 0.5 0.5 0.5 0.5 0.5 0.5 0.5 0.5 0.5 0.5 0.5 0.5 0.5 0.5 0.5 0.5 0.5 0.5 0.5 0.5 0.5 0.5 0.5 0.5 0.5 0.5 0.5 0.5 0.5 0.5 0.5 0.5 0.5 0.5 0.5 0.5 0.5 0.5 0.5 0.5 0.5 0.5 0.5 0.5 0.5 0.5 0.5 0.5 0.5 0.5 0.5 0.5 0.5 0.5 0.5 0.5 0.5 0.5 0.5 0.5 0.5 0.5 0.5 0.5 0.5 0.5 0.5 0.5 0.5 0.5 0.5 0.5 0.5 0.5 0.5 0.5 0.5 0.5 0.5 0.5 0.5 0.5 0.5 0.5 0.247923 0.752077 0.0660358 0.9339642 0.367726 0.632274 0.200945 0.799055 0.5 0.5 0.5 0.5 0.5 0.5 0.5 0.5 0.5 0.5 0.5 0.5 0.0916959 0.9083041000000001 0.335384 0.664616 0.103488 0.896512 0.577008 0.42299200000000003 0.5 0.5 0.5 0.5 0.5 0.5 0.5 0.5 0.5 0.5 0.5 0.5 0.5 0.5 0.5 0.5 0.125389 0.874611 0.287939 0.712061 0.2784 0.7216 0.102308 0.897692 0.5 0.5 0.5 0.5 0.5 0.5 0.5 0.5 0.5 0.5 0.5 0.5 0.5 0.5 0.5 0.5 0.5 0.5 0.5 0.5 0.5 0.5 0.5 0.5 0.5 0.5 0.5 0.5 0.5 0.5 0.5 0.5 0.5 0.5 0.5 0.5 0.5 0.5 0.5 0.5 0.5 0.5 0.5 0.5 0.5 0.5 0.5 0.5 0.5 0.5 0.5 0.5 0.5 0.5 0.5 0.5 0.5 0.5 0.5 0.5 0.5 0.5 0.5 0.5 0.5 0.5 0.5 0.5 0.5 0.5 0.5 0.5 0.5 0.5 0.5 0.5 0.5 0.5 0.5 0.5 0.5 0.5 0.5 0.5 0.5 0.5 0.5 0.5 0.5 0.5 0.5 0.5 0.476313 0.523687 0.336912 0.663088 0.701311 0.298689 0.186073 0.8139270000000001 0.5 0.5 0.5 0.5 0.5 0.5 0.5 0.5 0.5 0.5 0.5 0.5 0.5 0.5 0.5 0.5 0.5 0.5 0.5 0.5 0.5 0.5 0.5 0.5 0.5 0.5 0.5 0.5 0.5 0.5 0.5 0.5 0.0250969 0.9749031 0.388809 0.611191 0.306147 0.693853 0.327511 0.672489 0.5 0.5 0.5 0.5 0.5 0.5 0.5 0.5 0.743982 0.25601799999999997 0.880113 0.11988699999999997 0.622538 0.37746199999999996 0.24863 0.75137 0.5 0.5 0.5 0.5 0.5 0.5 0.5 0.5 0.5 0.5 0.5 0.5 0.5 0.5 0.5 0.5 0.5 0.5 0.5 0.5 0.5 0.5 0.5 0.5 0.5 0.5 0.5 0.5 0.5 0.5 0.5 0.5 0.5 0.5 0.5 0.5 0.5 0.5 0.5 0.5 0.5 0.5 0.5 0.5 0.5 0.5 0.5 0.5 0.5 0.5 0.5 0.5 0.5 0.5 0.5 0.5 0.5 0.5 0.5 0.5 0.5 0.5 0.5 0.5 0.5 0.5 0.5 0.5 0.5 0.5 0.5 0.5 0.5 0.5 0.5 0.5 0.5 0.5 0.5 0.5 0.5 0.5 0.5 0.5 0.5 0.5 0.5 0.5 0.5 0.5 0.5 0.5 0.5 0.5 0.5 0.5 0.5 0.5 0.5 0.5 0.216902 0.783098 0.230416 0.769584 0.381472 0.618528 0.440555 0.559445 0.355174 0.644826 0.381649 0.618351 0.953031 0.04696900000000004 0.341661 0.658339 0.5 0.5 0.5 0.5 0.5 0.5 0.5 0.5 0.5 0.5 0.5 0.5 0.5 0.5 0.5 0.5 0.5 0.5 0.5 0.5 0.5 0.5 0.5 0.5 0.5 0.5 0.5 0.5 0.5 0.5 0.5 0.5 0.5 0.5 0.5 0.5 0.5 0.5 0.5 0.5 0.5 0.5 0.5 0.5 0.5 0.5 0.5 0.5 0.5 0.5 0.5 0.5 0.5 0.5 0.5 0.5 0.5 0.5 0.5 0.5 0.5 0.5 0.5 0.5 0.5 0.5 0.5 0.5 0.5 0.5 0.5 0.5 0.5 0.5 0.5 0.5 0.204195 0.795805 0.979214 0.02078599999999997 0.342207 0.6577930000000001 0.474398 0.525602 0.5 0.5 0.5 0.5 0.5 0.5 0.5 0.5 0.5 0.5 0.5 0.5 0.5 0.5 0.5 0.5 0.5 0.5 0.5 0.5 0.5 0.5 0.5 0.5 0.5 0.5 0.5 0.5 0.5 0.5 0.5 0.5 0.175787 0.824213 0.0912745 0.9087255 0.475146 0.5248539999999999 0.139302 0.860698 0.5 0.5 0.5 0.5 0.5 0.5 0.5 0.5 0.5 0.5 0.5 0.5 0.5 0.5 0.5 0.5 0.5 0.5 0.5 0.5 0.5 0.5 0.5 0.5 0.5 0.5 0.5 0.5 0.5 0.5 0.5 0.5 0.787579 0.21242099999999997 0.166391 0.833609 0.526596 0.47340400000000005 0.377113 0.622887 0.5 0.5 0.5 0.5 0.5 0.5 0.5 0.5 0.5 0.5 0.5 0.5 0.5 0.5 0.5 0.5 0.5 0.5 0.5 0.5 0.5 0.5 0.5 0.5 0.5 0.5 0.5 0.5 0.5 0.5 0.5 0.5 0.5 0.5 0.5 0.5 0.5 0.5 0.5 0.5 0.5 0.5 0.5 0.5 0.5 0.5 0.5 0.5 0.5 0.5 0.5 0.5 0.5 0.5 0.5 0.5 0.5 0.5 0.5 0.5 0.5 0.5 0.5 0.5 0.5 0.5 0.5 0.5 0.367036 0.6329640000000001 0.574177 0.42582299999999995 0.398607 0.6013930000000001 0.20999 0.79001 0.5 0.5 0.5 0.5 0.5 0.5 0.5 0.5 0.187715 0.812285 0.503443 0.496557 0.0313236 0.9686764 0.992604 0.007395999999999958 0.5 0.5 0.5 0.5 0.5 0.5 0.5 0.5 0.5 0.5 0.5 0.5 0.5 0.5 0.5 0.5 0.5 0.5 0.5 0.5 0.5 0.5 0.5 0.5 0.5 0.5 0.5 0.5 0.5 0.5 0.5 0.5 0.5 0.5 0.5 0.5 0.5 0.5 0.5 0.5 0.5 0.5 0.5 0.5 0.5 0.5 0.5 0.5 0.5 0.5 0.5 0.5 0.5 0.5 0.5 0.5 0.5 0.5 0.5 0.5 0.5 0.5 0.5 0.5 0.5 0.5 0.5 0.5 0.5 0.5 0.5 0.5 0.5 0.5 0.5 0.5 0.5 0.5 0.5 0.5 0.5 0.5 0.5 0.5 0.5 0.5 0.5 0.5 0.5 0.5 0.5 0.5 0.5 0.5 0.5 0.5 0.5 0.5 0.5 0.5 0.5 0.5 0.5 0.5 0.5 0.5 0.5 0.5 0.5 0.5 0.5 0.5 0.5 0.5 0.5 0.5 0.5 0.5 0.5 0.5 0.5 0.5 0.5 0.5 0.5 0.5 0.5 0.5 0.5 0.5 0.5 0.5 0.5 0.5 0.5 0.5 0.5 0.5 0.5 0.5 0.5 0.5 0.5 0.5 0.5 0.5 0.5 0.5 0.5 0.5 0.5 0.5 0.5 0.5 0.5 0.5 0.5 0.5 0.5 0.5 0.5 0.5 0.5 0.5 0.5 0.5 0.5 0.5 0.5 0.5 0.5 0.5 0.5 0.5 0.5 0.5 0.5 0.5 0.5 0.5 0.530334 0.46966600000000003 0.137792 0.862208 0.186545 0.813455 0.555074 0.44492600000000004 0.544429 0.45557099999999995 0.275493 0.724507 0.5 0.5 0.5 0.5 0.5 0.5 0.5 0.5 0.5 0.5 0.5 0.5 0.5 0.5 0.5 0.5 0.5 0.5 0.5 0.5 0.5 0.5 0.5 0.5 0.5 0.5 0.5 0.5 0.5 0.5 0.5 0.5 0.419286 0.580714 0.210868 0.789132 0.938225 0.061775000000000024 0.94962 0.05037999999999998 0.5 0.5 0.5 0.5 0.5 0.5 0.5 0.5 0.5 0.5 0.5 0.5 0.5 0.5 0.5 0.5 0.5 0.5 0.5 0.5 0.5 0.5 0.5 0.5 0.705504 0.294496 0.898551 0.10144900000000001 0.926592 0.07340800000000003 0.568959 0.431041 0.5 0.5 0.5 0.5 0.5 0.5 0.5 0.5 0.5 0.5 0.5 0.5 0.5 0.5 0.5 0.5 0.5 0.5 0.5 0.5 0.5 0.5 0.5 0.5 0.5 0.5 0.5 0.5 0.5 0.5 0.5 0.5 0.5 0.5 0.5 0.5 0.5 0.5 0.5 0.5 0.5 0.5 0.5 0.5 0.5 0.5 0.5 0.5 0.5 0.5 0.5 0.5 0.5 0.5 0.5 0.5 0.5 0.5 0.5 0.5 0.5 0.5 0.5 0.5 0.5 0.5 0.5 0.5 0.5 0.5 0.5 0.5 0.5 0.5 0.5 0.5 0.437631 0.562369 0.827215 0.17278499999999997 0.067887 0.932113 0.966433 0.033567000000000013 0.5 0.5 0.5 0.5 0.5 0.5 0.5 0.5 0.5 0.5 0.5 0.5 0.5 0.5 0.5 0.5 0.5 0.5 0.5 0.5 0.5 0.5 0.5 0.5 0.5 0.5 0.5 0.5 0.5 0.5 0.5 0.5 0.5 0.5 0.5 0.5 0.5 0.5 0.5 0.5 0.5 0.5 0.5 0.5 0.5 0.5 0.5 0.5 0.5 0.5 0.5 0.5 0.5 0.5 0.5 0.5 0.5 0.5 0.5 0.5 0.5 0.5 0.5 0.5 0.5 0.5 0.5 0.5 0.5 0.5 0.5 0.5 0.5 0.5 0.5 0.5 0.5 0.5 0.5 0.5 0.613071 0.38692899999999997 0.881313 0.11868699999999999 0.5 0.5 0.5 0.5 0.5 0.5 0.5 0.5 0.5 0.5 0.5 0.5 0.5 0.5 0.5 0.5 0.5 0.5 0.5 0.5 0.5 0.5 0.5 0.5 0.5 0.5 0.5 0.5 0.5 0.5 0.5 0.5 0.5 0.5 0.5 0.5 0.5 0.5 0.5 0.5 0.5 0.5 0.5 0.5 0.5 0.5 0.5 0.5 0.5 0.5 0.5 0.5 0.5 0.5 0.5 0.5 0.5 0.5 0.5 0.5 0.5 0.5 0.5 0.5 0.5 0.5 0.5 0.5 0.5 0.5 0.5 0.5 0.5 0.5 0.5 0.5 0.5 0.5 0.5 0.5 0.657319 0.342681 0.011676 0.988324 0.965563 0.03443700000000005 0.41669 0.58331 0.5 0.5 0.5 0.5 0.5 0.5 0.5 0.5 0.5 0.5 0.5 0.5 0.5 0.5 0.5 0.5 0.5 0.5 0.5 0.5 0.5 0.5 0.5 0.5 0.5 0.5 0.5 0.5 0.5 0.5 0.5 0.5 0.841703 0.15829700000000002 0.582453 0.417547 0.5 0.5 0.5 0.5 0.5 0.5 0.5 0.5 0.5 0.5 0.5 0.5 0.5 0.5 0.5 0.5 0.5 0.5 0.5 0.5 0.5 0.5 0.5 0.5 0.79968 0.20032000000000005 0.0687259 0.9312741 0.233431 0.7665690000000001 0.284679 0.715321 0.5 0.5 0.5 0.5 0.5 0.5 0.5 0.5 0.5 0.5 0.5 0.5 0.5 0.5 0.5 0.5 0.5 0.5 0.5 0.5 0.5 0.5 0.5 0.5 0.5 0.5 0.5 0.5 0.5 0.5 0.5 0.5 0.5 0.5 0.5 0.5 0.5 0.5 0.5 0.5 0.5 0.5 0.5 0.5 0.5 0.5 0.5 0.5 0.5 0.5 0.5 0.5 0.5 0.5 0.5 0.5 0.5 0.5 0.5 0.5 0.5 0.5 0.5 0.5 0.5 0.5 0.5 0.5 0.5 0.5 0.5 0.5 0.5 0.5 0.5 0.5 0.5 0.5 0.5 0.5 0.5 0.5 0.5 0.5 0.5 0.5 0.5 0.5
-1 -2 0
1 2 0
-2 3 0
2 -3 0
-3 -261 4 0
-3 261 -4 0
3 -262 4 0
3 262 -4 0
-4 -5 0
4 5 0
-5 6 0
5 -6 0
-6 -7 0
6 7 0
-7 -8 0
7 8 0
-8 -9 0
8 9 0
-9 -10 0
9 10 0
-10 11 0
10 -11 0
-11 12 0
11 -12 0
-12 -13 0
12 13 0
-13 -14 0
13 14 0
-14 15 0
14 -15 0
-15 -16 0
15 16 0
-1 17 0
1 -17 0
-17 -2 18 0
-17 2 18 0
17 -2 -18 0
17 2 18 0
-18 -3 -19 0
-18 3 -19 0
18 -3 -19 0
18 3 19 0
-19 -4 20 0
-19 4 20 0
19 -4 -20 0
19 4 20 0
-20 -5 21 0
-20 5 -21 0
20 -5 -21 0
20 5 21 0
-21 -6 22 0
-21 6 22 0
21 -6 -22 0
21 6 22 0
-22 -7 -23 0
-22 7 -23 0
22 -7 -23 0
22 7 23 0
-23 -8 -24 0
-23 8 -24 0
23 -8 -24 0
23 8 24 0
-24 -9 25 0
-24 9 25 0
24 -9 25 0
24 9 -25 0
-25 -10 -321 26 0
-25 -10 321 -26 0
-25 10 -322 26 0
-25 10 322 -26 0
25 -10 -323 26 0
25 -10 323 -26 0
25 10 -324 26 0
25 10 324 -26 0
-26 -11 27 0
-26 11 -27 0
26 -11 -27 0
26 11 -27 0
-27 -12 28 0
-27 12 -28 0
27 -12 -28 0
27 12 28 0
-28 -13 -29 0
-28 13 29 0
28 -13 -29 0
28 13 29 0
-29 -14 -337 30 0
-29 -14 337 -30 0
-29 14 -338 30 0
-29 14 338 -30 0
29 -14 -339 30 0
29 -14 339 -30 0
29 14 -340 30 0
29 14 340 -30 0
-30 -15 -31 0
-30 15 31 0
30 -15 31 0
30 15 31 0
-31 -16 32 0
-31 16 -32 0
31 -16 -32 0
31 16 -32 0
-17 -33 0
17 33 0
-33 -18 -351 34 0
-33 -18 351 -34 0
-33 18 -352 34 0
-33 18 352 -34 0
33 -18 -353 34 0
33 -18 353 -34 0
33 18 -354 34 0
33 18 354 -34 0
-34 -19 -35 0
-34 19 35 0
34 -19 35 0
34 19 -35 0
-35 -20 36 0
-35 20 -36 0
35 -20 -36 0
35 20 -36 0
-36 -21 37 0
-36 21 37 0
36 -21 -37 0
36 21 37 0
-37 -22 -38 0
-37 22 38 0
37 -22 38 0
37 22 38 0
-38 -23 39 0
-38 23 -39 0
38 -23 -39 0
38 23 39 0
-39 -24 -40 0
-39 24 40 0
39 -24 40 0
39 24 -40 0
-40 -25 -41 0
-40 25 -41 0
40 -25 41 0
40 25 41 0
-41 -26 42 0
-41 26 -42 0
41 -26 -42 0
41 26 42 0
-42 -27 -43 0
-42 27 43 0
42 -27 -43 0
42 27 -43 0
-43 -28 -44 0
-43 28 -44 0
43 -28 44 0
43 28 44 0
-44 -29 -45 0
-44 29 45 0
44 -29 -45 0
44 29 -45 0
-45 -30 46 0
-45 30 -46 0
45 -30 -46 0
45 30 -46 0
-46 -31 -47 0
-46 31 -47 0
46 -31 -47 0
46 31 47 0
-47 -32 48 0
-47 32 -48 0
47 -32 -48 0
47 32 -48 0
-33 -49 0
33 49 0
-49 -34 -50 0
-49 34 50 0
49 -34 -50 0
49 34 -50 0
-50 -35 51 0
-50 35 -51 0
50 -35 51 0
50 35 51 0
-51 -36 52 0
-51 36 -52 0
51 -36 52 0
51 36 -52 0
-52 -37 53 0
-52 37 -53 0
52 -37 53 0
52 37 -53 0
-53 -38 54 0
-53 38 -54 0
53 -38 54 0
53 38 -54 0
-54 -39 55 0
-54 39 -55 0
54 -39 55 0
54 39 -55 0
-55 -40 56 0
-55 40 -56 0
55 -40 -56 0
55 40 56 0
-56 -41 57 0
-56 41 -57 0
56 -41 57 0
56 41 57 0
-57 -42 -58 0
-57 42 -58 0
57 -42 -58 0
57 42 58 0
-58 -43 -59 0
-58 43 59 0
58 -43 -59 0
58 43 59 0
-59 -44 -453 60 0
-59 -44 453 -60 0
-59 44 -454 60 0
-59 44 454 -60 0
59 -44 -455 60 0
59 -44 455 -60 0
59 44 -456 60 0
59 44 456 -60 0
-60 -45 -61 0
-60 45 61 0
60 -45 61 0
60 45 61 0
-61 -46 -461 62 0
-61 -46 461 -62 0
-61 46 -462 62 0
-61 46 462 -62 0
61 -46 -463 62 0
61 -46 463 -62 0
61 46 -464 62 0
61 46 464 -62 0
-62 -47 63 0
-62 47 -63 0
62 -47 -63 0
62 47 -63 0
-63 -48 -64 0
-63 48 -64 0
63 -48 64 0
63 48 -64 0
-49 -65 0
49 65 0
-65 -50 -66 0
-65 50 -66 0
65 -50 -66 0
65 50 66 0
-66 -51 67 0
-66 51 -67 0
66 -51 67 0
66 51 -67 0
-67 -52 -68 0
-67 52 68 0
67 -52 -68 0
67 52 -68 0
-68 -53 -487 69 0
-68 -53 487 -69 0
-68 53 -488 69 0
-68 53 488 -69 0
68 -53 -489 69 0
68 -53 489 -69 0
68 53 -490 69 0
68 53 490 -69 0
-69 -54 -70 0
-69 54 -70 0
69 -54 70 0
69 54 70 0
-70 -55 71 0
-70 55 71 0
70 -55 -71 0
70 55 -71 0
-71 -56 -72 0
-71 56 72 0
71 -56 72 0
71 56 -72 0
-72 -57 -73 0
-72 57 73 0
72 -57 73 0
72 57 73 0
-73 -58 74 0
-73 58 -74 0
73 -58 74 0
73 58 74 0
-74 -59 75 0
-74 59 -75 0
74 -59 -75 0
74 59 75 0
-75 -60 76 0
-75 60 -76 0
75 -60 -76 0
75 60 -76 0
-76 -61 -77 0
-76 61 77 0
76 -61 -77 0
76 61 -77 0
-77 -62 78 0
-77 62 -78 0
77 -62 -78 0
77 62 78 0
-78 -63 -527 79 0
-78 -63 527 -79 0
-78 63 -528 79 0
-78 63 528 -79 0
78 -63 -529 79 0
78 -63 529 -79 0
78 63 -530 79 0
78 63 530 -79 0
-79 -64 -80 0
-79 64 80 0
79 -64 80 0
79 64 80 0
-65 81 0
65 -81 0
-81 -66 82 0
-81 66 82 0
81 -66 -82 0
81 66 82 0
-82 -67 83 0
-82 67 -83 0
82 -67 83 0
82 67 83 0
-83 -68 84 0
-83 68 84 0
83 -68 -84 0
83 68 84 0
-84 -69 85 0
-84 69 -85 0
84 -69 -85 0
84 69 -85 0
-85 -70 86 0
-85 70 -86 0
85 -70 -86 0
85 70 86 0
-86 -71 87 0
-86 71 -87 0
86 -71 -87 0
86 71 -87 0
-87 -72 88 0
-87 72 88 0
87 -72 88 0
87 72 -88 0
-88 -73 89 0
-88 73 89 0
88 -73 89 0
88 73 -89 0
-89 -74 -90 0
-89 74 90 0
89 -74 90 0
89 74 90 0
-90 -75 91 0
-90 75 -91 0
90 -75 -91 0
90 75 91 0
-91 -76 -92 0
-91 76 92 0
91 -76 -92 0
91 76 -92 0
-92 -77 -93 0
-92 77 93 0
92 -77 -93 0
92 77 -93 0
-93 -78 94 0
-93 78 -94 0
93 -78 94 0
93 78 -94 0
-94 -79 -589 95 0
-94 -79 589 -95 0
-94 79 -590 95 0
-94 79 590 -95 0
94 -79 -591 95 0
94 -79 591 -95 0
94 79 -592 95 0
94 79 592 -95 0
-95 -80 96 0
-95 80 96 0
95 -80 96 0
95 80 -96 0
-81 -97 0
81 97 0
-97 -82 -599 98 0
-97 -82 599 -98 0
-97 82 -600 98 0
-97 82 600 -98 0
97 -82 -601 98 0
97 -82 601 -98 0
97 82 -602 98 0
97 82 602 -98 0
-98 -83 -99 0
-98 83 99 0
98 -83 -99 0
98 83 -99 0
-99 -84 100 0
-99 84 -100 0
99 -84 100 0
99 84 100 0
-100 -85 -611 101 0
-100 -85 611 -101 0
-100 85 -612 101 0
-100 85 612 -101 0
100 -85 -613 101 0
100 -85 613 -101 0
100 85 -614 101 0
100 85 614 -101 0
-101 -86 102 0
-101 86 -102 0
101 -86 -102 0
101 86 102 0
-102 -87 103 0
-102 87 -103 0
102 -87 -103 0
102 87 103 0
-103 -88 -104 0
-103 88 -104 0
103 -88 104 0
103 88 104 0
-104 -89 105 0
-104 89 105 0
104 -89 105 0
104 89 -105 0
-105 -90 106 0
-105 90 106 0
105 -90 -106 0
105 90 -106 0
-106 -91 107 0
-106 91 -107 0
106 -91 -107 0
106 91 -107 0
-107 -92 108 0
-107 92 -108 0
107 -92 -108 0
107 92 -108 0
-108 -93 109 0
-108 93 109 0
108 -93 -109 0
108 93 109 0
-109 -94 -110 0
-109 94 110 0
109 -94 110 0
109 94 110 0
-110 -95 -111 0
-110 95 111 0
110 -95 111 0
110 95 -111 0
-111 -96 112 0
-111 96 112 0
111 -96 -112 0
111 96 112 0
-97 113 0
97 -113 0
-113 -98 -661 114 0
-113 -98 661 -114 0
-113 98 -662 114 0
-113 98 662 -114 0
113 -98 -663 114 0
113 -98 663 -114 0
113 98 -664 114 0
113 98 664 -114 0
-114 -99 -115 0
-114 99 115 0
114 -99 115 0
114 99 -115 0
-115 -100 -116 0
-115 100 -116 0
115 -100 116 0
115 100 -116 0
-116 -101 -117 0
-116 101 117 0
116 -101 -117 0
116 101 -117 0
-117 -102 118 0
-117 102 118 0
117 -102 -118 0
117 102 118 0
-118 -103 -681 119 0
-118 -103 681 -119 0
-118 103 -682 119 0
-118 103 682 -119 0
118 -103 -683 119 0
118 -103 683 -119 0
118 103 -684 119 0
118 103 684 -119 0
-119 -104 120 0
-119 104 120 0
119 -104 -120 0
119 104 -120 0
-120 -105 -689 121 0
-120 -105 689 -121 0
-120 105 -690 121 0
-120 105 690 -121 0
120 -105 -691 121 0
120 -105 691 -121 0
120 105 -692 121 0
120 105 692 -121 0
-121 -106 122 0
-121 106 122 0
121 -106 -122 0
121 106 122 0
-122 -107 123 0
-122 107 -123 0
122 -107 123 0
122 107 123 0
-123 -108 -124 0
-123 108 -124 0
123 -108 124 0
123 108 124 0
-124 -109 -125 0
-124 109 125 0
124 -109 125 0
124 109 -125 0
-125 -110 -126 0
-125 110 126 0
125 -110 126 0
125 110 -126 0
-126 -111 -127 0
-126 111 127 0
126 -111 -127 0
126 111 127 0
-127 -112 128 0
-127 112 -128 0
127 -112 -128 0
127 112 -128 0
-113 129 0
113 -129 0
-129 -114 -130 0
-129 114 -130 0
129 -114 130 0
129 114 130 0
-130 -115 -131 0
-130 115 -131 0
130 -115 131 0
130 115 131 0
-131 -116 -132 0
-131 116 -132 0
131 -116 132 0
131 116 -132 0
-132 -117 133 0
-132 117 -133 0
132 -117 -133 0
132 117 -133 0
-133 -118 -134 0
-133 118 134 0
133 -118 134 0
133 118 -134 0
-134 -119 -743 135 0
-134 -119 743 -135 0
-134 119 -744 135 0
-134 119 744 -135 0
134 -119 -745 135 0
134 -119 745 -135 0
134 119 -746 135 0
134 119 746 -135 0
-135 -120 -747 136 0
-135 -120 747 -136 0
-135 120 -748 136 0
-135 120 748 -136 0
135 -120 -749 136 0
135 -120 749 -136 0
135 120 -750 136 0
135 120 750 -136 0
-136 -121 -137 0
-136 121 137 0
136 -121 137 0
136 121 137 0
-137 -122 -138 0
-137 122 138 0
137 -122 -138 0
137 122 -138 0
-138 -123 139 0
-138 123 139 0
138 -123 139 0
138 123 -139 0
-139 -124 140 0
-139 124 -140 0
139 -124 -140 0
139 124 -140 0
-140 -125 141 0
-140 125 141 0
140 -125 141 0
140 125 -141 0
-141 -126 142 0
-141 126 142 0
141 -126 142 0
141 126 -142 0
-142 -127 143 0
-142 127 -143 0
142 -127 -143 0
142 127 -143 0
-143 -128 -144 0
-143 128 144 0
143 -128 -144 0
143 128 -144 0
-129 145 0
129 -145 0
-145 -130 -146 0
-145 130 146 0
145 -130 146 0
145 130 146 0
-146 -131 -789 147 0
-146 -131 789 -147 0
-146 131 -790 147 0
-146 131 790 -147 0
146 -131 -791 147 0
146 -131 791 -147 0
146 131 -792 147 0
146 131 792 -147 0
-147 -132 148 0
-147 132 148 0
147 -132 -148 0
147 132 148 0
-148 -133 -149 0
-148 133 -149 0
148 -133 149 0
148 133 -149 0
-149 -134 150 0
-149 134 -150 0
149 -134 -150 0
149 134 -150 0
-150 -135 151 0
-150 135 -151 0
150 -135 -151 0
150 135 -151 0
-151 -136 -809 152 0
-151 -136 809 -152 0
-151 136 -810 152 0
-151 136 810 -152 0
151 -136 -811 152 0
151 -136 811 -152 0
151 136 -812 152 0
151 136 812 -152 0
-152 -137 -153 0
-152 137 -153 0
152 -137 153 0
152 137 -153 0
-153 -138 154 0
-153 138 154 0
153 -138 -154 0
153 138 154 0
-154 -139 155 0
-154 139 155 0
154 -139 -155 0
154 139 155 0
-155 -140 -156 0
-155 140 156 0
155 -140 -156 0
155 140 -156 0
-156 -141 -829 157 0
-156 -141 829 -157 0
-156 141 -830 157 0
-156 141 830 -157 0
156 -141 -831 157 0
156 -141 831 -157 0
156 141 -832 157 0
156 141 832 -157 0
-157 -142 -158 0
-157 142 -158 0
157 -142 158 0
157 142 -158 0
-158 -143 159 0
-158 143 -159 0
158 -143 -159 0
158 143 -159 0
-159 -144 160 0
-159 144 160 0
159 -144 -160 0
159 144 -160 0
-145 -161 0
145 161 0
-161 -146 -162 0
-161 146 -162 0
161 -146 162 0
161 146 -162 0
-162 -147 163 0
-162 147 -163 0
162 -147 163 0
162 147 -163 0
-163 -148 164 0
-163 148 164 0
163 -148 -164 0
163 148 164 0
-164 -149 165 0
-164 149 165 0
164 -149 165 0
164 149 -165 0
-165 -150 166 0
-165 150 -166 0
165 -150 166 0
165 150 166 0
-166 -151 -867 167 0
-166 -151 867 -167 0
-166 151 -868 167 0
-166 151 868 -167 0
166 -151 -869 167 0
166 -151 869 -167 0
166 151 -870 167 0
166 151 870 -167 0
-167 -152 168 0
-167 152 -168 0
167 -152 -168 0
167 152 -168 0
-168 -153 -875 169 0
-168 -153 875 -169 0
-168 153 -876 169 0
-168 153 876 -169 0
168 -153 -877 169 0
168 -153 877 -169 0
168 153 -878 169 0
168 153 878 -169 0
-169 -154 -170 0
-169 154 170 0
169 -154 -170 0
169 154 -170 0
-170 -155 171 0
-170 155 171 0
170 -155 -171 0
170 155 171 0
-171 -156 -172 0
-171 156 -172 0
171 -156 172 0
171 156 172 0
-172 -157 173 0
-172 157 173 0
172 -157 -173 0
172 157 -173 0
-173 -158 -174 0
-173 158 -174 0
173 -158 174 0
173 158 -174 0
-174 -159 -175 0
-174 159 175 0
174 -159 -175 0
174 159 -175 0
-175 -160 -176 0
-175 160 176 0
175 -160 -176 0
175 160 -176 0
-161 177 0
161 -177 0
-177 -162 -178 0
-177 162 -178 0
177 -162 -178 0
177 162 178 0
-178 -163 179 0
-178 163 -179 0
178 -163 179 0
178 163 -179 0
-179 -164 180 0
-179 164 -180 0
179 -164 180 0
179 164 180 0
-180 -165 181 0
-180 165 -181 0
180 -165 -181 0
180 165 -181 0
-181 -166 182 0
-181 166 -182 0
181 -166 -182 0
181 166 -182 0
-182 -167 183 0
-182 167 -183 0
182 -167 183 0
182 167 183 0
-183 -168 184 0
-183 168 184 0
183 -168 -184 0
183 168 184 0
-184 -169 -185 0
-184 169 185 0
184 -169 185 0
184 169 185 0
-185 -170 -186 0
-185 170 186 0
185 -170 186 0
185 170 -186 0
-186 -171 -187 0
-186 171 -187 0
186 -171 187 0
186 171 -187 0
-187 -172 188 0
-187 172 188 0
187 -172 188 0
187 172 -188 0
-188 -173 189 0
-188 173 -189 0
188 -173 189 0
188 173 -189 0
-189 -174 -190 0
-189 174 190 0
189 -174 -190 0
189 174 190 0
-190 -175 -191 0
-190 175 191 0
190 -175 -191 0
190 175 191 0
-191 -176 -192 0
-191 176 192 0
191 -176 -192 0
191 176 -192 0
-177 -969 193 0
-177 969 -193 0
177 -970 193 0
177 970 -193 0
-193 -178 -971 194 0
-193 -178 971 -194 0
-193 178 -972 194 0
-193 178 972 -194 0
193 -178 -973 194 0
193 -178 973 -194 0
193 178 -974 194 0
193 178 974 -194 0
-194 -179 195 0
-194 179 195 0
194 -179 195 0
194 179 -195 0
-195 -180 -196 0
-195 180 -196 0
195 -180 196 0
195 180 -196 0
-196 -181 197 0
-196 181 -197 0
196 -181 -197 0
196 181 197 0
-197 -182 198 0
-197 182 -198 0
197 -182 -198 0
197 182 198 0
-198 -183 -991 199 0
-198 -183 991 -199 0
-198 183 -992 199 0
-198 183 992 -199 0
198 -183 -993 199 0
198 -183 993 -199 0
198 183 -994 199 0
198 183 994 -199 0
-199 -184 -200 0
-199 184 200 0
199 -184 -200 0
199 184 -200 0
-200 -185 201 0
-200 185 -201 0
200 -185 -201 0
200 185 201 0
-201 -186 -202 0
-201 186 202 0
201 -186 202 0
201 186 202 0
-202 -187 -1007 203 0
-202 -187 1007 -203 0
-202 187 -1008 203 0
-202 187 1008 -203 0
202 -187 -1009 203 0
202 -187 1009 -203 0
202 187 -1010 203 0
202 187 1010 -203 0
-203 -188 204 0
-203 188 -204 0
203 -188 204 0
203 188 204 0
-204 -189 205 0
-204 189 -205 0
204 -189 -205 0
204 189 -205 0
-205 -190 206 0
-205 190 206 0
205 -190 -206 0
205 190 206 0
-206 -191 207 0
-206 191 -207 0
206 -191 207 0
206 191 -207 0
-207 -192 -208 0
-207 192 -208 0
207 -192 -208 0
207 192 208 0
-193 -209 0
193 209 0
-209 -194 -210 0
-209 194 -210 0
209 -194 -210 0
209 194 210 0
-210 -195 -211 0
-210 195 -211 0
210 -195 211 0
210 195 211 0
-211 -196 212 0
-211 196 212 0
211 -196 -212 0
211 196 212 0
-212 -197 213 0
-212 197 -213 0
212 -197 213 0
212 197 213 0
-213 -198 -1049 214 0
-213 -198 1049 -214 0
-213 198 -1050 214 0
-213 198 1050 -214 0
213 -198 -1051 214 0
213 -198 1051 -214 0
213 198 -1052 214 0
213 198 1052 -214 0
-214 -199 -215 0
-214 199 -215 0
214 -199 215 0
214 199 -215 0
-215 -200 216 0
-215 200 216 0
215 -200 -216 0
215 200 -216 0
-216 -201 217 0
-216 201 -217 0
216 -201 -217 0
216 201 -217 0
-217 -202 218 0
-217 202 218 0
217 -202 -218 0
217 202 218 0
-218 -203 219 0
-218 203 -219 0
218 -203 219 0
218 203 -219 0
-219 -204 220 0
-219 204 220 0
219 -204 -220 0
219 204 220 0
-220 -205 -221 0
-220 205 -221 0
220 -205 -221 0
220 205 221 0
-221 -206 222 0
-221 206 -222 0
221 -206 222 0
221 206 222 0
-222 -207 -223 0
-222 207 -223 0
222 -207 223 0
222 207 -223 0
-223 -208 224 0
-223 208 -224 0
223 -208 -224 0
223 208 224 0
-209 -1093 225 0
-209 1093 -225 0
209 -1094 225 0
209 1094 -225 0
-225 -210 226 0
-225 210 226 0
225 -210 226 0
225 210 -226 0
-226 -211 227 0
-226 211 -227 0
226 -211 -227 0
226 211 227 0
-227 -212 -228 0
-227 212 -228 0
227 -212 -228 0
227 212 228 0
-228 -213 -229 0
-228 213 229 0
228 -213 -229 0
228 213 -229 0
-229 -214 230 0
-229 214 230 0
229 -214 -230 0
229 214 230 0
-230 -215 -231 0
-230 215 231 0
230 -215 -231 0
230 215 -231 0
-231 -216 232 0
-231 216 -232 0
231 -216 -232 0
231 216 -232 0
-232 -217 -233 0
-232 217 -233 0
232 -217 -233 0
232 217 233 0
-233 -218 -234 0
-233 218 234 0
233 -218 -234 0
233 218 -234 0
-234 -219 235 0
-234 219 235 0
234 -219 235 0
234 219 -235 0
-235 -220 -1135 236 0
-235 -220 1135 -236 0
-235 220 -1136 236 0
-235 220 1136 -236 0
235 -220 -1137 236 0
235 -220 1137 -236 0
235 220 -1138 236 0
235 220 1138 -236 0
-236 -221 -237 0
-236 221 237 0
236 -221 -237 0
236 221 237 0
-237 -222 -238 0
-237 222 238 0
237 -222 238 0
237 222 -238 0
-238 -223 239 0
-238 223 -239 0
238 -223 239 0
238 223 -239 0
-239 -224 240 0
-239 224 -240 0
239 -224 -240 0
239 224 240 0
-225 -1155 241 0
-225 1155 -241 0
225 -1156 241 0
225 1156 -241 0
-241 -226 -242 0
-241 226 242 0
241 -226 242 0
241 226 -242 0
-242 -227 -243 0
-242 227 243 0
242 -227 -243 0
242 227 -243 0
-243 -228 -244 0
-243 228 244 0
243 -228 -244 0
243 228 -244 0
-244 -229 -1169 245 0
-244 -229 1169 -245 0
-244 229 -1170 245 0
-244 229 1170 -245 0
244 -229 -1171 245 0
244 -229 1171 -245 0
244 229 -1172 245 0
244 229 1172 -245 0
-245 -230 -246 0
-245 230 246 0
245 -230 -246 0
245 230 -246 0
-246 -231 247 0
-246 231 247 0
246 -231 247 0
246 231 -247 0
-247 -232 248 0
-247 232 -248 0
247 -232 248 0
247 232 -248 0
-248 -233 -249 0
-248 233 249 0
248 -233 249 0
248 233 -249 0
-249 -234 250 0
-249 234 250 0
249 -234 250 0
249 234 -250 0
-250 -235 251 0
-250 235 -251 0
250 -235 251 0
250 235 251 0
-251 -236 252 0
-251 236 -252 0
251 -236 252 0
251 236 252 0
-252 -237 -253 0
-252 237 253 0
252 -237 253 0
252 237 -253 0
-253 -238 -254 0
-253 238 -254 0
253 -238 -254 0
253 238 254 0
-254 -239 -255 0
-254 239 -255 0
254 -239 255 0
254 239 255 0
-255 -240 -256 0
-255 240 -256 0
255 -240 -256 0
255 240 256 0
256 0
