data/benchmarks/bayes/90-16-1-q.gr
p tw 1216 1033
166 181
214 230
198 213
15 30
67 68
47 62
99 100
119 743
107 122
159 160
139 154
8 9
40 41
21 37
199 214
213 1052
251 252
48 63
100 101
114 664
80 95
132 133
105 692
151 811
140 155
172 187
41 42
73 74
232 247
100 613
133 134
187 1008
14 15
120 689
153 875
173 188
225 226
98 661
22 37
74 75
199 991
106 107
236 1138
114 129
166 167
15 16
121 690
147 791
47 48
226 227
225 1156
206 221
55 70
107 108
136 809
88 104
69 490
147 162
134 745
199 200
180 196
29 45
202 1010
239 254
140 141
168 877
121 137
232 233
213 229
81 82
198 994
62 78
240 255
173 174
154 170
22 23
3 19
233 234
114 115
59 454
95 111
113 663
155 171
206 207
187 203
55 56
36 52
214 229
96 112
147 148
128 144
207 208
188 204
183 992
239 240
220 236
21 36
62 464
69 85
63 527
129 145
105 691
161 177
10 26
221 237
205 220
54 69
102 118
100 612
181 182
187 1007
162 178
146 161
194 210
43 59
3 261
103 119
87 102
236 1137
135 151
68 488
214 215
195 211
147 790
179 194
78 529
227 243
28 43
76 92
157 831
88 103
136 152
120 135
69 489
168 184
21 22
180 195
79 530
228 244
29 44
202 1009
77 93
61 76
113 114
121 136
169 185
153 168
205 206
2 17
54 55
213 228
198 993
62 77
110 126
94 109
146 147
154 169
202 218
3 18
51 67
35 50
87 88
98 664
113 662
95 110
143 159
127 142
179 180
235 1136
28 29
9 25
187 202
235 251
36 51
88 89
61 462
68 83
120 121
194 973
128 143
180 181
160 175
29 30
61 62
183 991
42 58
220 235
62 463
69 84
121 122
220 1138
101 116
153 154
134 150
2 3
105 690
213 214
131 791
10 25
62 63
146 789
94 95
75 91
30 339
102 117
154 155
53 490
3 4
35 36
16 32
194 209
246 247
119 682
43 58
95 96
127 128
156 829
108 124
135 150
187 188
68 487
36 37
95 590
17 33
68 69
147 789
49 65
78 528
227 242
34 351
76 91
157 830
109 125
168 183
220 221
201 217
69 70
50 66
79 529
101 102
82 98
161 162
142 158
10 11
63 530
18 351
23 39
253 254
234 250
102 103
83 99
194 195
175 191
43 44
24 40
136 748
56 72
46 464
135 136
33 354
116 132
120 749
176 192
227 228
235 1135
208 224
76 77
9 24
57 73
61 461
168 169
149 165
194 972
26 323
30 46
209 225
42 57
90 106
220 1137
150 166
134 149
182 198
131 790
31 47
141 831
75 90
123 139
30 338
53 489
183 199
215 231
16 31
64 80
119 681
124 140
108 123
156 172
9 10
5 21
166 869
95 589
216 232
245 1171
78 527
97 113
157 829
109 124
157 173
229 1172
189 205
42 43
167 870
201 216
241 1155
82 97
134 135
142 157
98 599
190 206
222 238
23 38
75 76
135 746
234 249
146 792
82 600
118 684
83 98
101 613
131 147
115 130
151 870
178 973
225 1094
175 190
198 1049
223 239
94 592
136 747
56 71
46 463
108 109
33 353
116 131
120 748
156 832
164 180
226 241
49 50
208 223
57 72
109 110
167 182
89 104
14 339
60 455
149 164
194 971
201 202
197 213
50 51
26 322
97 602
30 45
82 83
44 456
63 79
103 682
90 105
142 143
200 215
23 24
79 590
4 20
152 812
182 197
131 789
83 84
141 156
234 235
115 116
135 750
141 830
214 1052
123 138
175 176
233 248
24 25
56 57
37 53
215 230
64 79
116 117
174 189
244 1169
156 171
57 58
166 868
167 168
38 54
89 90
70 86
245 1170
85 614
149 150
207 222
130 146
30 31
229 1171
11 27
189 204
241 242
90 91
148 163
193 970
71 87
200 201
182 183
163 179
31 32
141 142
169 878
12 28
29 337
44 60
222 237
4 262
135 745
123 124
181 196
82 599
118 683
101 612
104 120
178 972
215 216
10 323
122 137
174 175
25 321
45 61
196 212
94 591
156 157
137 153
5 6
33 352
120 747
18 34
248 249
229 245
97 98
203 1010
78 94
14 338
189 190
213 1051
60 454
114 663
148 149
170 186
19 35
97 601
26 321
151 810
103 681
44 455
63 78
193 974
111 127
222 223
203 219
79 589
4 19
98 602
52 68
152 811
135 749
144 160
122 123
214 1051
236 252
37 52
121 689
85 101
198 1052
225 1155
177 193
26 42
119 746
166 867
237 253
134 744
70 85
85 613
118 134
168 876
210 226
11 26
63 64
229 1170
193 969
151 167
4 5
177 970
169 877
211 227
44 59
4 261
135 744
120 692
153 878
199 994
178 971
59 453
37 38
10 322
196 211
155 170
244 1172
185 201
96 111
136 812
18 33
70 71
229 244
203 1009
130 131
188 203
11 12
213 1050
60 453
114 662
170 185
218 234
97 600
151 809
44 454
193 973
163 164
221 236
44 45
100 611
25 41
203 218
255 256
152 810
162 177
29 340
144 159
196 197
103 118
155 156
236 1136
236 251
25 324
137 138
195 210
247 248
18 19
229 230
136 151
188 189
69 488
59 75
119 745
134 743
85 612
118 133
170 171
202 1008
77 92
129 130
228 243
168 875
210 225
111 112
169 184
221 222
92 108
151 166
198 992
203 204
177 969
110 125
162 163
184 200
33 49
187 1010
202 217
254 255
120 691
125 141
51 66
103 104
153 877
84 100
98 663
199 993
236 237
113 661
217 233
85 86
10 321
143 158
66 82
195 196
177 178
235 250
158 174
136 137
7 23
117 133
136 811
118 119
228 229
99 115
77 78
58 74
210 211
62 462
191 207
169 170
40 56
105 689
151 152
132 148
110 111
91 107
243 244
224 240
202 203
25 40
73 89
51 52
32 48
165 181
143 144
14 30
236 1135
235 236
106 122
65 81
198 214
47 63
6 22
69 487
119 744
139 155
50 65
79 528
98 114
183 994
202 1007
63 529
80 96
39 55
172 188
25 26
198 991
187 1009
24 39
72 88
120 690
84 99
98 662
17 18
176 191
68 490
147 792
34 354
117 132
58 73
62 461
220 1136
150 165
18 354
31 46
91 106
30 337
53 488
183 198
231 247
32 47
84 85
158 159
217 218
124 139
5 20
216 231
235 1138
117 118
250 251
61 464
157 172
209 210
6 21
58 59
167 869
191 192
79 527
183 993
98 113
150 151
63 528
190 205
242 243
113 129
39 54
91 92
146 791
151 869
131 146
183 184
205 221
54 70
225 1093
13 29
165 166
223 238
146 162
72 87
124 125
46 462
105 121
119 684
3 262
156 831
164 179
216 217
87 103
65 66
46 62
68 489
95 592
198 199
179 195
157 158
78 530
28 44
6 7
34 353
138 154
157 832
139 140
197 212
249 250
120 136
98 99
230 246
79 95
190 191
220 1135
61 77
39 40
171 187
20 36
172 173
18 353
153 169
131 132
2 18
112 128
141 829
223 224
53 487
94 110
72 73
204 220
53 69
231 246
136 750
164 165
35 51
145 161
127 143
38 53
235 1137
86 102
245 1169
209 1094
197 198
130 145
61 463
68 84
178 194
27 43
194 974
167 868
238 254
160 176
71 86
119 135
163 178
101 117
12 27
60 76
131 792
146 790
104 119
118 682
101 611
151 868
152 168
1 17
231 232
30 340
212 228
13 28
45 60
94 590
93 109
46 461
105 120
119 683
137 152
33 351
38 39
156 830
46 61
95 591
78 93
126 142
14 337
138 153
34 352
186 202
19 34
71 72
230 245
79 94
111 126
12 13
171 186
219 235
20 35
98 601
52 67
104 105
18 352
135 748
112 127
82 602
13 14
214 1050
45 46
204 219
53 68
105 106
198 1051
85 100
136 749
193 209
46 47
120 750
26 41
78 79
237 252
86 101
138 139
209 1093
19 20
178 193
230 231
229 1169
27 42
79 80
167 867
238 253
26 324
103 684
119 134
171 172
20 21
52 53
169 876
211 226
60 75
79 592
135 743
118 681
152 167
151 867
141 832
204 205
53 54
34 50
212 227
94 589
93 108
121 692
145 146
244 1171
26 27
185 200
237 238
86 87
67 83
166 870
203 1008
126 141
178 179
245 1172
159 175
27 28
213 1049
8 24
114 661
186 201
218 233
238 239
97 599
119 120
100 116
44 453
193 972
211 212
241 1156
192 208
60 61
41 57
219 234
98 600
152 809
29 339
152 153
135 747
1 2
133 149
212 213
82 601
214 1049
101 614
244 245
115 131
59 456
93 94
178 974
74 90
225 241
198 1050
25 323
185 186
166 182
15 31
245 246
226 242
126 127
59 74
107 123
186 187
85 611
167 183
218 219
89 105
14 340
199 215
48 64
60 456
151 812
92 107
140 156
103 683
219 220
200 216
184 199
232 248
169 875
81 97
100 614
79 591
141 157
125 140
153 876
173 189
199 992
22 38
252 253
233 249
217 232
34 49
66 81
114 130
121 691
193 194
174 190
158 173
244 1170
206 222
7 22
59 60
55 71
136 810
67 82
99 114
203 1007
147 163
134 746
159 174
207 223
191 206
8 23
239 255
40 55
92 93
168 878
100 115
148 164
132 147
184 185
193 971
33 34
192 207
240 256
224 239
41 56
73 88
125 126
29 338
133 148
181 197
165 180
34 35
14 29
66 67
59 455
113 664
74 89
10 324
122 138
106 121
25 322
7 8
